; SPDX-License-Identifier: MPL-2.0
; Copyright (c) 2026 The RIINA Authors.
; Auto-generated from 02_FORMAL/coq/domains/SessionTypes.v (45 validations)
; Generated by scripts/generate-full-stack.py
;
; Translation Validation for SessionTypes
; Layer 9: Verifies compiler backend preserves formal semantics.
; Each assertion checks source IR ≡ target code for a proven property.

(set-logic QF_LIA)
(set-option :produce-models true)

; IR node representation
(declare-sort IRNode 0)
(declare-sort TargetNode 0)

; msg_type_eqb: source semantics (matches Coq)
(declare-fun source_msg_type_eqb () Bool)
(declare-fun target_msg_type_eqb () Bool)
(assert (= source_msg_type_eqb target_msg_type_eqb))

; channel_used: source semantics (matches Coq)
(declare-fun source_channel_used () Bool)
(declare-fun target_channel_used () Bool)
(assert (= source_channel_used target_channel_used))

; is_fresh: source semantics (matches Coq)
(declare-fun source_is_fresh () Bool)
(declare-fun target_is_fresh () Bool)
(assert (= source_is_fresh target_is_fresh))

; well_formed_pair: source semantics (matches Coq)
(declare-fun source_well_formed_pair () Bool)
(declare-fun target_well_formed_pair () Bool)
(assert (= source_well_formed_pair target_well_formed_pair))

; is_value: source semantics (matches Coq)
(declare-fun source_is_value () Bool)
(declare-fun target_is_value () Bool)
(assert (= source_is_value target_is_value))

; waiting: source semantics (matches Coq)
(declare-fun source_waiting () Bool)
(declare-fun target_waiting () Bool)
(assert (= source_waiting target_waiting))

; holding: source semantics (matches Coq)
(declare-fun source_holding () Bool)
(declare-fun target_holding () Bool)
(assert (= source_holding target_holding))

; waits_for: source semantics (matches Coq)
(declare-fun source_waits_for () Bool)
(declare-fun target_waits_for () Bool)
(assert (= source_waits_for target_waits_for))

; circular_wait: source semantics (matches Coq)
(declare-fun source_circular_wait () Bool)
(declare-fun target_circular_wait () Bool)
(assert (= source_circular_wait target_circular_wait))

; deadlocked: source semantics (matches Coq)
(declare-fun source_deadlocked () Bool)
(declare-fun target_deadlocked () Bool)
(assert (= source_deadlocked target_deadlocked))

; session_typed: source semantics (matches Coq)
(declare-fun source_session_typed () Bool)
(declare-fun target_session_typed () Bool)
(assert (= source_session_typed target_session_typed))

; ST_001_dual_end: translation preserves property (matches Coq: Theorem)
(declare-fun source_ST_001_dual_end () Bool)
(declare-fun target_ST_001_dual_end () Bool)
(assert (= source_ST_001_dual_end target_ST_001_dual_end))

; ST_002_dual_send_recv: translation preserves property (matches Coq: Theorem)
(declare-fun source_ST_002_dual_send_recv () Bool)
(declare-fun target_ST_002_dual_send_recv () Bool)
(assert (= source_ST_002_dual_send_recv target_ST_002_dual_send_recv))

; ST_003_dual_recv_send: translation preserves property (matches Coq: Theorem)
(declare-fun source_ST_003_dual_recv_send () Bool)
(declare-fun target_ST_003_dual_recv_send () Bool)
(assert (= source_ST_003_dual_recv_send target_ST_003_dual_recv_send))

; ST_004_dual_select_offer: translation preserves property (matches Coq: Theorem)
(declare-fun source_ST_004_dual_select_offer () Bool)
(declare-fun target_ST_004_dual_select_offer () Bool)
(assert (= source_ST_004_dual_select_offer target_ST_004_dual_select_offer))

; ST_005_dual_offer_select: translation preserves property (matches Coq: Theorem)
(declare-fun source_ST_005_dual_offer_select () Bool)
(declare-fun target_ST_005_dual_offer_select () Bool)
(assert (= source_ST_005_dual_offer_select target_ST_005_dual_offer_select))

; ST_006_dual_involutive_end: translation preserves property (matches Coq: Theorem)
(declare-fun source_ST_006_dual_involutive_end () Bool)
(declare-fun target_ST_006_dual_involutive_end () Bool)
(assert (= source_ST_006_dual_involutive_end target_ST_006_dual_involutive_end))

; ST_007_dual_involutive_send: translation preserves property (matches Coq: Theorem)
(declare-fun source_ST_007_dual_involutive_send () Bool)
(declare-fun target_ST_007_dual_involutive_send () Bool)
(assert (= source_ST_007_dual_involutive_send target_ST_007_dual_involutive_send))

; ST_008_dual_involutive_recv: translation preserves property (matches Coq: Theorem)
(declare-fun source_ST_008_dual_involutive_recv () Bool)
(declare-fun target_ST_008_dual_involutive_recv () Bool)
(assert (= source_ST_008_dual_involutive_recv target_ST_008_dual_involutive_recv))

; ST_009_dual_chain: translation preserves property (matches Coq: Theorem)
(declare-fun source_ST_009_dual_chain () Bool)
(declare-fun target_ST_009_dual_chain () Bool)
(assert (= source_ST_009_dual_chain target_ST_009_dual_chain))

; ST_010_dual_chain_rev: translation preserves property (matches Coq: Theorem)
(declare-fun source_ST_010_dual_chain_rev () Bool)
(declare-fun target_ST_010_dual_chain_rev () Bool)
(assert (= source_ST_010_dual_chain_rev target_ST_010_dual_chain_rev))

; ST_011_dual_preserves_msg: translation preserves property (matches Coq: Theorem)
(declare-fun source_ST_011_dual_preserves_msg () Bool)
(declare-fun target_ST_011_dual_preserves_msg () Bool)
(assert (= source_ST_011_dual_preserves_msg target_ST_011_dual_preserves_msg))

; ST_012_endpoints_dual: translation preserves property (matches Coq: Theorem)
(declare-fun source_ST_012_endpoints_dual () Bool)
(declare-fun target_ST_012_endpoints_dual () Bool)
(assert (= source_ST_012_endpoints_dual target_ST_012_endpoints_dual))

; ST_013_fresh_linear: translation preserves property (matches Coq: Theorem)
(declare-fun source_ST_013_fresh_linear () Bool)
(declare-fun target_ST_013_fresh_linear () Bool)
(assert (= source_ST_013_fresh_linear target_ST_013_fresh_linear))

; ST_014_used_not_linear: translation preserves property (matches Coq: Theorem)
(declare-fun source_ST_014_used_not_linear () Bool)
(declare-fun target_ST_014_used_not_linear () Bool)
(assert (= source_ST_014_used_not_linear target_ST_014_used_not_linear))

; ST_015_use_preserves_id: translation preserves property (matches Coq: Theorem)
(declare-fun source_ST_015_use_preserves_id () Bool)
(declare-fun target_ST_015_use_preserves_id () Bool)
(assert (= source_ST_015_use_preserves_id target_ST_015_use_preserves_id))

; ST_016_use_preserves_type: translation preserves property (matches Coq: Theorem)
(declare-fun source_ST_016_use_preserves_type () Bool)
(declare-fun target_ST_016_use_preserves_type () Bool)
(assert (= source_ST_016_use_preserves_type target_ST_016_use_preserves_type))

; ST_017_wf_pair_dual: translation preserves property (matches Coq: Theorem)
(declare-fun source_ST_017_wf_pair_dual () Bool)
(declare-fun target_ST_017_wf_pair_dual () Bool)
(assert (= source_ST_017_wf_pair_dual target_ST_017_wf_pair_dual))

; ST_018_wf_pair_same_id: translation preserves property (matches Coq: Theorem)
(declare-fun source_ST_018_wf_pair_same_id () Bool)
(declare-fun target_ST_018_wf_pair_same_id () Bool)
(assert (= source_ST_018_wf_pair_same_id target_ST_018_wf_pair_same_id))

; ST_019_session_no_deadlock: translation preserves property (matches Coq: Theorem)
(declare-fun source_ST_019_session_no_deadlock () Bool)
(declare-fun target_ST_019_session_no_deadlock () Bool)
(assert (= source_ST_019_session_no_deadlock target_ST_019_session_no_deadlock))

; ST_020_dual_communicate: translation preserves property (matches Coq: Theorem)
(declare-fun source_ST_020_dual_communicate () Bool)
(declare-fun target_ST_020_dual_communicate () Bool)
(assert (= source_ST_020_dual_communicate target_ST_020_dual_communicate))

; ST_021_value_done: translation preserves property (matches Coq: Theorem)
(declare-fun source_ST_021_value_done () Bool)
(declare-fun target_ST_021_value_done () Bool)
(assert (= source_ST_021_value_done target_ST_021_value_done))

; ST_022_end_is_value: translation preserves property (matches Coq: Theorem)
(declare-fun source_ST_022_end_is_value () Bool)
(declare-fun target_ST_022_end_is_value () Bool)
(assert (= source_ST_022_end_is_value target_ST_022_end_is_value))

; ST_023_empty_deadlock_free: translation preserves property (matches Coq: Theorem)
(declare-fun source_ST_023_empty_deadlock_free () Bool)
(declare-fun target_ST_023_empty_deadlock_free () Bool)
(assert (= source_ST_023_empty_deadlock_free target_ST_023_empty_deadlock_free))

; ST_024_msg_eq_refl: translation preserves property (matches Coq: Theorem)
(declare-fun source_ST_024_msg_eq_refl () Bool)
(declare-fun target_ST_024_msg_eq_refl () Bool)
(assert (= source_ST_024_msg_eq_refl target_ST_024_msg_eq_refl))

; ST_025_msg_eq_true: translation preserves property (matches Coq: Theorem)
(declare-fun source_ST_025_msg_eq_true () Bool)
(declare-fun target_ST_025_msg_eq_true () Bool)
(assert (= source_ST_025_msg_eq_true target_ST_025_msg_eq_true))

; ST_026_msg_type_cases: translation preserves property (matches Coq: Theorem)
(declare-fun source_ST_026_msg_type_cases () Bool)
(declare-fun target_ST_026_msg_type_cases () Bool)
(assert (= source_ST_026_msg_type_cases target_ST_026_msg_type_cases))

; ST_027_msg_type_dec: translation preserves property (matches Coq: Theorem)
(declare-fun source_ST_027_msg_type_dec () Bool)
(declare-fun target_ST_027_msg_type_dec () Bool)
(assert (= source_ST_027_msg_type_dec target_ST_027_msg_type_dec))

; ST_028_session_type_cases: translation preserves property (matches Coq: Theorem)
(declare-fun source_ST_028_session_type_cases () Bool)
(declare-fun target_ST_028_session_type_cases () Bool)
(assert (= source_ST_028_session_type_cases target_ST_028_session_type_cases))

; ST_029_dual_non_end_send: translation preserves property (matches Coq: Theorem)
(declare-fun source_ST_029_dual_non_end_send () Bool)
(declare-fun target_ST_029_dual_non_end_send () Bool)
(assert (= source_ST_029_dual_non_end_send target_ST_029_dual_non_end_send))

; ST_030_dual_non_end_recv: translation preserves property (matches Coq: Theorem)
(declare-fun source_ST_030_dual_non_end_recv () Bool)
(declare-fun target_ST_030_dual_non_end_recv () Bool)
(assert (= source_ST_030_dual_non_end_recv target_ST_030_dual_non_end_recv))

; ST_031_dual_empty_select: translation preserves property (matches Coq: Theorem)
(declare-fun source_ST_031_dual_empty_select () Bool)
(declare-fun target_ST_031_dual_empty_select () Bool)
(assert (= source_ST_031_dual_empty_select target_ST_031_dual_empty_select))

; ST_032_dual_empty_offer: translation preserves property (matches Coq: Theorem)
(declare-fun source_ST_032_dual_empty_offer () Bool)
(declare-fun target_ST_032_dual_empty_offer () Bool)
(assert (= source_ST_032_dual_empty_offer target_ST_032_dual_empty_offer))

; ST_033_lookup_empty: translation preserves property (matches Coq: Theorem)
(declare-fun source_ST_033_lookup_empty () Bool)
(declare-fun target_ST_033_lookup_empty () Bool)
(assert (= source_ST_033_lookup_empty target_ST_033_lookup_empty))

; ST_034_lookup_found: translation preserves property (matches Coq: Theorem)
(declare-fun source_ST_034_lookup_found () Bool)
(declare-fun target_ST_034_lookup_found () Bool)
(assert (= source_ST_034_lookup_found target_ST_034_lookup_found))

; ST_035_lookup_skip: translation preserves property (matches Coq: Theorem)
(declare-fun source_ST_035_lookup_skip () Bool)
(declare-fun target_ST_035_lookup_skip () Bool)
(assert (= source_ST_035_lookup_skip target_ST_035_lookup_skip))

; ST_036_dual_compose_send: translation preserves property (matches Coq: Theorem)
(declare-fun source_ST_036_dual_compose_send () Bool)
(declare-fun target_ST_036_dual_compose_send () Bool)
(assert (= source_ST_036_dual_compose_send target_ST_036_dual_compose_send))

; ST_037_dual_branches: translation preserves property (matches Coq: Theorem)
(declare-fun source_ST_037_dual_branches () Bool)
(declare-fun target_ST_037_dual_branches () Bool)
(assert (= source_ST_037_dual_branches target_ST_037_dual_branches))

; ST_038_single_branch_dual: translation preserves property (matches Coq: Theorem)
(declare-fun source_ST_038_single_branch_dual () Bool)
(declare-fun target_ST_038_single_branch_dual () Bool)
(assert (= source_ST_038_single_branch_dual target_ST_038_single_branch_dual))

; ST_039_wt_end_empty: translation preserves property (matches Coq: Theorem)
(declare-fun source_ST_039_wt_end_empty () Bool)
(declare-fun target_ST_039_wt_end_empty () Bool)
(assert (= source_ST_039_wt_end_empty target_ST_039_wt_end_empty))

; ST_040_par_exists: translation preserves property (matches Coq: Theorem)
(declare-fun source_ST_040_par_exists () Bool)
(declare-fun target_ST_040_par_exists () Bool)
(assert (= source_ST_040_par_exists target_ST_040_par_exists))

; ST_041_chan_construct: translation preserves property (matches Coq: Theorem)
(declare-fun source_ST_041_chan_construct () Bool)
(declare-fun target_ST_041_chan_construct () Bool)
(assert (= source_ST_041_chan_construct target_ST_041_chan_construct))

; ST_042_pair_construct: translation preserves property (matches Coq: Theorem)
(declare-fun source_ST_042_pair_construct () Bool)
(declare-fun target_ST_042_pair_construct () Bool)
(assert (= source_ST_042_pair_construct target_ST_042_pair_construct))

; ST_043_process_cases: translation preserves property (matches Coq: Theorem)
(declare-fun source_ST_043_process_cases () Bool)
(declare-fun target_ST_043_process_cases () Bool)
(assert (= source_ST_043_process_cases target_ST_043_process_cases))

; ST_044_dual_triple_end: translation preserves property (matches Coq: Theorem)
(declare-fun source_ST_044_dual_triple_end () Bool)
(declare-fun target_ST_044_dual_triple_end () Bool)
(assert (= source_ST_044_dual_triple_end target_ST_044_dual_triple_end))

; ST_045_nested_send_dual: translation preserves property (matches Coq: Theorem)
(declare-fun source_ST_045_nested_send_dual () Bool)
(declare-fun target_ST_045_nested_send_dual () Bool)
(assert (= source_ST_045_nested_send_dual target_ST_045_nested_send_dual))

; Verify all translation validations are satisfiable
(check-sat)
(exit)
